examples/inputs/input8.dzn
n = 25;
l = 150;
s = 100;
r = 120;
f = 60;
forbidden = [| 16, 11
	| 7, 19
	| 17, 9
	| 15, 2
	| 22, 3
	| 12, 19
	| 16, 6
	| 20, 13
	| 7, 18
	| 12, 21
	| 25, 23
	| 7, 6
	| 22, 17
	| 3, 8
	| 6, 24
	| 21, 6
	| 14, 21
	| 23, 13
	| 12, 15
	| 8, 25
	| 4, 25
	| 7, 1
	| 9, 23
	| 14, 2
	| 6, 8
	| 18, 10
	| 1, 7
	| 6, 23
	| 15, 12
	| 2, 9
	| 21, 10
	| 3, 6
	| 16, 15
	| 8, 7
	| 11, 20
	| 13, 22
	| 12, 16
	| 15, 6
	| 1, 12
	| 8, 20
	| 2, 3
	| 7, 10
	| 17, 22
	| 6, 3
	| 22, 25
	| 14, 10
	| 10, 19
	| 13, 8
	| 5, 5
	| 1, 4
	| 12, 11
	| 15, 3
	| 3, 16
	| 18, 12
	| 19, 8
	| 18, 17
	| 25, 3
	| 23, 23
	| 6, 9
	| 5, 16
	|];