examples/inputs/input8.lp
#const n = 25.
#const l = 150.
#const s = 100.
#const r = 120.
#const f = 60.
val(16, 11, xxx).
val(7, 19, xxx).
val(17, 9, xxx).
val(15, 2, xxx).
val(22, 3, xxx).
val(12, 19, xxx).
val(16, 6, xxx).
val(20, 13, xxx).
val(7, 18, xxx).
val(12, 21, xxx).
val(25, 23, xxx).
val(7, 6, xxx).
val(22, 17, xxx).
val(3, 8, xxx).
val(6, 24, xxx).
val(21, 6, xxx).
val(14, 21, xxx).
val(23, 13, xxx).
val(12, 15, xxx).
val(8, 25, xxx).
val(4, 25, xxx).
val(7, 1, xxx).
val(9, 23, xxx).
val(14, 2, xxx).
val(6, 8, xxx).
val(18, 10, xxx).
val(1, 7, xxx).
val(6, 23, xxx).
val(15, 12, xxx).
val(2, 9, xxx).
val(21, 10, xxx).
val(3, 6, xxx).
val(16, 15, xxx).
val(8, 7, xxx).
val(11, 20, xxx).
val(13, 22, xxx).
val(12, 16, xxx).
val(15, 6, xxx).
val(1, 12, xxx).
val(8, 20, xxx).
val(2, 3, xxx).
val(7, 10, xxx).
val(17, 22, xxx).
val(6, 3, xxx).
val(22, 25, xxx).
val(14, 10, xxx).
val(10, 19, xxx).
val(13, 8, xxx).
val(5, 5, xxx).
val(1, 4, xxx).
val(12, 11, xxx).
val(15, 3, xxx).
val(3, 16, xxx).
val(18, 12, xxx).
val(19, 8, xxx).
val(18, 17, xxx).
val(25, 3, xxx).
val(23, 23, xxx).
val(6, 9, xxx).
val(5, 16, xxx).